Code 434
Dimension, Median 
   128       16     
 Facility, Client, Transportation Cost
     1        1           1
     1        2           0
     1        3           1
     1        5           3
     1        9           2
     1       17           1
     1       33           1
     1       65           4
     2        1           0
     2        2           1
     2        4           0
     2        6           4
     2       10           0
     2       18           0
     2       34           0
     2       66           0
     3        1           4
     3        3           0
     3        4           3
     3        7           3
     3       11           3
     3       19           2
     3       35           0
     3       67           4
     4        2           2
     4        3           1
     4        4           4
     4        8           0
     4       12           1
     4       20           4
     4       36           2
     4       68           1
     5        1           1
     5        5           0
     5        6           2
     5        7           4
     5       13           2
     5       21           2
     5       37           0
     5       69           3
     6        2           0
     6        5           1
     6        6           2
     6        8           4
     6       14           3
     6       22           2
     6       38           1
     6       70           1
     7        3           3
     7        5           0
     7        7           2
     7        8           1
     7       15           3
     7       23           1
     7       39           2
     7       71           4
     8        4           1
     8        6           2
     8        7           0
     8        8           2
     8       16           3
     8       24           3
     8       40           0
     8       72           3
     9        1           2
     9        9           2
     9       10           2
     9       11           1
     9       13           4
     9       25           3
     9       41           4
     9       73           2
    10        2           1
    10        9           1
    10       10           4
    10       12           3
    10       14           1
    10       26           0
    10       42           2
    10       74           1
    11        3           0
    11        9           0
    11       11           0
    11       12           3
    11       15           1
    11       27           2
    11       43           1
    11       75           2
    12        4           2
    12       10           1
    12       11           4
    12       12           1
    12       16           1
    12       28           1
    12       44           4
    12       76           0
    13        5           1
    13        9           2
    13       13           1
    13       14           3
    13       15           1
    13       29           0
    13       45           2
    13       77           4
    14        6           3
    14       10           1
    14       13           1
    14       14           1
    14       16           0
    14       30           1
    14       46           4
    14       78           0
    15        7           3
    15       11           1
    15       13           1
    15       15           2
    15       16           1
    15       31           0
    15       47           0
    15       79           3
    16        8           4
    16       12           2
    16       14           4
    16       15           1
    16       16           2
    16       32           0
    16       48           4
    16       80           3
    17        1           1
    17       17           3
    17       18           0
    17       19           0
    17       21           3
    17       25           3
    17       49           2
    17       81           0
    18        2           2
    18       17           0
    18       18           1
    18       20           4
    18       22           0
    18       26           4
    18       50           2
    18       82           3
    19        3           0
    19       17           0
    19       19           4
    19       20           2
    19       23           1
    19       27           2
    19       51           0
    19       83           2
    20        4           3
    20       18           2
    20       19           4
    20       20           4
    20       24           2
    20       28           3
    20       52           0
    20       84           4
    21        5           1
    21       17           3
    21       21           1
    21       22           4
    21       23           3
    21       29           2
    21       53           0
    21       85           4
    22        6           4
    22       18           4
    22       21           2
    22       22           1
    22       24           2
    22       30           2
    22       54           0
    22       86           1
    23        7           2
    23       19           3
    23       21           2
    23       23           4
    23       24           1
    23       31           3
    23       55           3
    23       87           1
    24        8           4
    24       20           3
    24       22           2
    24       23           0
    24       24           3
    24       32           2
    24       56           2
    24       88           4
    25        9           1
    25       17           3
    25       25           3
    25       26           4
    25       27           3
    25       29           2
    25       57           3
    25       89           3
    26       10           0
    26       18           4
    26       25           2
    26       26           0
    26       28           0
    26       30           4
    26       58           3
    26       90           0
    27       11           3
    27       19           1
    27       25           4
    27       27           4
    27       28           3
    27       31           1
    27       59           4
    27       91           3
    28       12           2
    28       20           2
    28       26           0
    28       27           2
    28       28           0
    28       32           4
    28       60           3
    28       92           3
    29       13           3
    29       21           2
    29       25           1
    29       29           4
    29       30           3
    29       31           2
    29       61           4
    29       93           3
    30       14           1
    30       22           4
    30       26           3
    30       29           0
    30       30           3
    30       32           1
    30       62           2
    30       94           3
    31       15           0
    31       23           3
    31       27           1
    31       29           4
    31       31           0
    31       32           2
    31       63           3
    31       95           4
    32       16           3
    32       24           4
    32       28           1
    32       30           4
    32       31           0
    32       32           4
    32       64           0
    32       96           2
    33        1           3
    33       33           1
    33       34           0
    33       35           3
    33       37           4
    33       41           0
    33       49           3
    33       97           2
    34        2           0
    34       33           1
    34       34           2
    34       36           4
    34       38           1
    34       42           1
    34       50           4
    34       98           2
    35        3           2
    35       33           4
    35       35           1
    35       36           3
    35       39           0
    35       43           1
    35       51           4
    35       99           3
    36        4           3
    36       34           2
    36       35           2
    36       36           3
    36       40           2
    36       44           2
    36       52           1
    36      100           4
    37        5           0
    37       33           4
    37       37           3
    37       38           4
    37       39           0
    37       45           0
    37       53           4
    37      101           2
    38        6           1
    38       34           4
    38       37           0
    38       38           3
    38       40           3
    38       46           2
    38       54           0
    38      102           2
    39        7           1
    39       35           0
    39       37           1
    39       39           3
    39       40           0
    39       47           4
    39       55           4
    39      103           2
    40        8           1
    40       36           3
    40       38           1
    40       39           1
    40       40           2
    40       48           1
    40       56           1
    40      104           1
    41        9           2
    41       33           3
    41       41           4
    41       42           4
    41       43           3
    41       45           2
    41       57           4
    41      105           4
    42       10           3
    42       34           4
    42       41           4
    42       42           1
    42       44           3
    42       46           4
    42       58           0
    42      106           0
    43       11           2
    43       35           0
    43       41           0
    43       43           2
    43       44           3
    43       47           1
    43       59           0
    43      107           3
    44       12           0
    44       36           3
    44       42           2
    44       43           4
    44       44           4
    44       48           1
    44       60           4
    44      108           2
    45       13           1
    45       37           2
    45       41           1
    45       45           1
    45       46           4
    45       47           1
    45       61           4
    45      109           0
    46       14           2
    46       38           1
    46       42           3
    46       45           1
    46       46           4
    46       48           2
    46       62           3
    46      110           4
    47       15           2
    47       39           1
    47       43           1
    47       45           4
    47       47           1
    47       48           2
    47       63           3
    47      111           1
    48       16           2
    48       40           4
    48       44           0
    48       46           3
    48       47           0
    48       48           0
    48       64           1
    48      112           1
    49       17           1
    49       33           1
    49       49           2
    49       50           1
    49       51           2
    49       53           1
    49       57           0
    49      113           2
    50       18           0
    50       34           3
    50       49           4
    50       50           1
    50       52           0
    50       54           1
    50       58           2
    50      114           1
    51       19           1
    51       35           2
    51       49           4
    51       51           1
    51       52           4
    51       55           0
    51       59           0
    51      115           2
    52       20           0
    52       36           3
    52       50           3
    52       51           4
    52       52           2
    52       56           0
    52       60           0
    52      116           2
    53       21           2
    53       37           2
    53       49           2
    53       53           2
    53       54           2
    53       55           4
    53       61           2
    53      117           0
    54       22           4
    54       38           3
    54       50           0
    54       53           4
    54       54           4
    54       56           2
    54       62           0
    54      118           2
    55       23           3
    55       39           0
    55       51           3
    55       53           3
    55       55           1
    55       56           2
    55       63           2
    55      119           3
    56       24           4
    56       40           2
    56       52           1
    56       54           1
    56       55           1
    56       56           2
    56       64           1
    56      120           2
    57       25           4
    57       41           4
    57       49           1
    57       57           0
    57       58           1
    57       59           2
    57       61           4
    57      121           1
    58       26           4
    58       42           4
    58       50           0
    58       57           2
    58       58           4
    58       60           3
    58       62           4
    58      122           4
    59       27           0
    59       43           4
    59       51           2
    59       57           1
    59       59           2
    59       60           4
    59       63           1
    59      123           4
    60       28           0
    60       44           4
    60       52           1
    60       58           2
    60       59           0
    60       60           1
    60       64           4
    60      124           0
    61       29           4
    61       45           4
    61       53           3
    61       57           1
    61       61           4
    61       62           1
    61       63           3
    61      125           2
    62       30           0
    62       46           0
    62       54           4
    62       58           1
    62       61           2
    62       62           3
    62       64           3
    62      126           0
    63       31           4
    63       47           1
    63       55           2
    63       59           1
    63       61           3
    63       63           4
    63       64           3
    63      127           0
    64       32           3
    64       48           1
    64       56           1
    64       60           3
    64       62           3
    64       63           3
    64       64           4
    64      128           0
    65        1           0
    65       65           2
    65       66           4
    65       67           4
    65       69           4
    65       73           3
    65       81           3
    65       97           2
    66        2           1
    66       65           4
    66       66           1
    66       68           2
    66       70           2
    66       74           1
    66       82           4
    66       98           4
    67        3           4
    67       65           0
    67       67           4
    67       68           0
    67       71           0
    67       75           4
    67       83           0
    67       99           2
    68        4           3
    68       66           0
    68       67           4
    68       68           1
    68       72           4
    68       76           4
    68       84           2
    68      100           4
    69        5           1
    69       65           3
    69       69           0
    69       70           4
    69       71           0
    69       77           2
    69       85           4
    69      101           4
    70        6           1
    70       66           1
    70       69           1
    70       70           1
    70       72           0
    70       78           2
    70       86           4
    70      102           4
    71        7           4
    71       67           4
    71       69           2
    71       71           4
    71       72           4
    71       79           3
    71       87           2
    71      103           2
    72        8           1
    72       68           3
    72       70           0
    72       71           3
    72       72           1
    72       80           2
    72       88           2
    72      104           0
    73        9           2
    73       65           4
    73       73           2
    73       74           0
    73       75           4
    73       77           0
    73       89           3
    73      105           3
    74       10           1
    74       66           2
    74       73           4
    74       74           1
    74       76           3
    74       78           0
    74       90           2
    74      106           1
    75       11           4
    75       67           2
    75       73           0
    75       75           1
    75       76           0
    75       79           4
    75       91           1
    75      107           2
    76       12           4
    76       68           3
    76       74           2
    76       75           2
    76       76           2
    76       80           4
    76       92           0
    76      108           3
    77       13           2
    77       69           1
    77       73           1
    77       77           1
    77       78           0
    77       79           3
    77       93           3
    77      109           2
    78       14           1
    78       70           4
    78       74           1
    78       77           4
    78       78           2
    78       80           2
    78       94           1
    78      110           0
    79       15           0
    79       71           1
    79       75           3
    79       77           1
    79       79           3
    79       80           1
    79       95           0
    79      111           4
    80       16           1
    80       72           2
    80       76           1
    80       78           4
    80       79           0
    80       80           1
    80       96           1
    80      112           1
    81       17           0
    81       65           0
    81       81           4
    81       82           4
    81       83           3
    81       85           4
    81       89           3
    81      113           0
    82       18           1
    82       66           3
    82       81           2
    82       82           0
    82       84           1
    82       86           3
    82       90           1
    82      114           3
    83       19           0
    83       67           2
    83       81           4
    83       83           4
    83       84           2
    83       87           4
    83       91           2
    83      115           4
    84       20           0
    84       68           4
    84       82           0
    84       83           4
    84       84           3
    84       88           4
    84       92           1
    84      116           1
    85       21           2
    85       69           0
    85       81           4
    85       85           2
    85       86           3
    85       87           3
    85       93           2
    85      117           2
    86       22           1
    86       70           1
    86       82           1
    86       85           1
    86       86           4
    86       88           0
    86       94           3
    86      118           1
    87       23           2
    87       71           1
    87       83           0
    87       85           3
    87       87           4
    87       88           3
    87       95           1
    87      119           0
    88       24           1
    88       72           1
    88       84           3
    88       86           0
    88       87           3
    88       88           2
    88       96           2
    88      120           3
    89       25           4
    89       73           1
    89       81           3
    89       89           0
    89       90           1
    89       91           0
    89       93           1
    89      121           0
    90       26           4
    90       74           4
    90       82           3
    90       89           2
    90       90           2
    90       92           0
    90       94           2
    90      122           4
    91       27           0
    91       75           4
    91       83           4
    91       89           0
    91       91           1
    91       92           3
    91       95           2
    91      123           2
    92       28           2
    92       76           0
    92       84           2
    92       90           3
    92       91           3
    92       92           2
    92       96           4
    92      124           0
    93       29           4
    93       77           0
    93       85           0
    93       89           3
    93       93           3
    93       94           2
    93       95           2
    93      125           2
    94       30           2
    94       78           3
    94       86           0
    94       90           1
    94       93           3
    94       94           0
    94       96           1
    94      126           2
    95       31           0
    95       79           3
    95       87           4
    95       91           2
    95       93           4
    95       95           2
    95       96           2
    95      127           0
    96       32           3
    96       80           4
    96       88           1
    96       92           1
    96       94           4
    96       95           1
    96       96           3
    96      128           4
    97       33           4
    97       65           2
    97       97           3
    97       98           2
    97       99           2
    97      101           3
    97      105           0
    97      113           3
    98       34           4
    98       66           0
    98       97           1
    98       98           4
    98      100           0
    98      102           4
    98      106           4
    98      114           2
    99       35           4
    99       67           3
    99       97           0
    99       99           2
    99      100           0
    99      103           0
    99      107           0
    99      115           3
   100       36           4
   100       68           2
   100       98           4
   100       99           0
   100      100           2
   100      104           4
   100      108           0
   100      116           3
   101       37           0
   101       69           1
   101       97           1
   101      101           1
   101      102           3
   101      103           3
   101      109           4
   101      117           0
   102       38           1
   102       70           2
   102       98           4
   102      101           3
   102      102           0
   102      104           1
   102      110           3
   102      118           3
   103       39           3
   103       71           2
   103       99           0
   103      101           0
   103      103           0
   103      104           3
   103      111           1
   103      119           0
   104       40           3
   104       72           2
   104      100           1
   104      102           0
   104      103           0
   104      104           0
   104      112           1
   104      120           2
   105       41           1
   105       73           0
   105       97           3
   105      105           2
   105      106           3
   105      107           3
   105      109           4
   105      121           0
   106       42           3
   106       74           1
   106       98           1
   106      105           2
   106      106           2
   106      108           3
   106      110           3
   106      122           1
   107       43           1
   107       75           0
   107       99           4
   107      105           2
   107      107           1
   107      108           1
   107      111           3
   107      123           2
   108       44           0
   108       76           1
   108      100           1
   108      106           2
   108      107           4
   108      108           3
   108      112           1
   108      124           4
   109       45           0
   109       77           0
   109      101           4
   109      105           2
   109      109           3
   109      110           0
   109      111           2
   109      125           4
   110       46           3
   110       78           4
   110      102           2
   110      106           2
   110      109           2
   110      110           1
   110      112           1
   110      126           0
   111       47           3
   111       79           0
   111      103           1
   111      107           3
   111      109           2
   111      111           2
   111      112           2
   111      127           1
   112       48           3
   112       80           3
   112      104           1
   112      108           4
   112      110           4
   112      111           4
   112      112           2
   112      128           1
   113       49           3
   113       81           2
   113       97           4
   113      113           1
   113      114           3
   113      115           3
   113      117           0
   113      121           2
   114       50           2
   114       82           2
   114       98           1
   114      113           1
   114      114           4
   114      116           0
   114      118           1
   114      122           0
   115       51           4
   115       83           3
   115       99           2
   115      113           3
   115      115           0
   115      116           2
   115      119           2
   115      123           2
   116       52           3
   116       84           1
   116      100           0
   116      114           3
   116      115           2
   116      116           4
   116      120           4
   116      124           2
   117       53           4
   117       85           4
   117      101           4
   117      113           4
   117      117           3
   117      118           2
   117      119           3
   117      125           1
   118       54           1
   118       86           3
   118      102           3
   118      114           0
   118      117           2
   118      118           0
   118      120           1
   118      126           2
   119       55           4
   119       87           1
   119      103           2
   119      115           4
   119      117           4
   119      119           4
   119      120           1
   119      127           4
   120       56           3
   120       88           3
   120      104           0
   120      116           4
   120      118           3
   120      119           2
   120      120           3
   120      128           1
   121       57           2
   121       89           1
   121      105           4
   121      113           3
   121      121           4
   121      122           4
   121      123           3
   121      125           1
   122       58           0
   122       90           4
   122      106           2
   122      114           4
   122      121           1
   122      122           2
   122      124           4
   122      126           0
   123       59           4
   123       91           0
   123      107           4
   123      115           2
   123      121           0
   123      123           4
   123      124           1
   123      127           4
   124       60           3
   124       92           3
   124      108           2
   124      116           3
   124      122           1
   124      123           2
   124      124           0
   124      128           0
   125       61           4
   125       93           2
   125      109           0
   125      117           0
   125      121           1
   125      125           1
   125      126           2
   125      127           4
   126       62           4
   126       94           2
   126      110           4
   126      118           4
   126      122           4
   126      125           4
   126      126           3
   126      128           2
   127       63           4
   127       95           3
   127      111           2
   127      119           3
   127      123           3
   127      125           3
   127      127           4
   127      128           2
   128       64           3
   128       96           4
   128      112           3
   128      120           0
   128      124           3
   128      126           2
   128      127           0
   128      128           1
